NAME: CMT12_2
TYPE: CVRP
COMMENT: 819.56 - Cluster Nr.2
DIMENSION: 18
CAPACITY: 200
EDGE_WEIGHT_TYPE: EUC_2D
NODE_COORD_TYPE: TWOD_COORDS
NODE_COORD_SECTION: 
18 35 32
3 35 30
7 47 35
16 45 30
8 30 35
11 40 50
2 33 32
14 48 30
10 32 30
4 30 32
6 28 30
5 25 35
9 45 35
12 25 30
13 26 32
15 28 35
1 30 30
17 33 35
DEPOT_SECTION: 
11
-1
DEMAND_SECTION: 
3 10
2 20
14 10
1 10
8 10
6 10
18 10
12 10
9 10
17 10
13 10
11 0
5 10
7 10
10 10
15 10
4 30
16 10
EOF
